
Gurobi 13.0.1 (linux64) logging started Sun Mar 22 00:09:50 2026

Set parameter LogFile to value "logs/75B_3F_robust_gamma_0d5_theta_0d05199999999999999_2026-03-22_00h09m35s.log"
Gurobi Optimizer version 13.0.1 build v13.0.1rc0 (linux64 - "Linux Mint 22")

CPU model: 12th Gen Intel(R) Core(TM) i7-12700, instruction set [SSE2|AVX|AVX2]
Thread count: 20 physical cores, 20 logical processors, using up to 20 threads

Non-default parameters:
TimeLimit  3600
SoftMemLimit  12

Optimize a model with 45596 rows, 867096 columns and 2644377 nonzeros (Max)
Model fingerprint: 0xe2bfb1de
Model has 832586 linear objective coefficients
Variable types: 12096 continuous, 855000 integer (855000 binary)
Coefficient statistics:
  Matrix range     [3e-05, 1e+05]
  Objective range  [1e+00, 3e+03]
  Bounds range     [1e+00, 1e+05]
  RHS range        [1e-02, 1e+05]

Presolve removed 23361 rows and 626499 columns
Presolve time: 1.47s
Presolved: 22235 rows, 240597 columns, 754072 nonzeros
Variable types: 5898 continuous, 234699 integer (234699 binary)
Found heuristic solution: objective -4.12338e+08
Deterministic concurrent LP optimizer: primal simplex, dual simplex, and barrier
Showing barrier log only...

Root barrier log...

Ordering time: 0.48s

Barrier statistics:
 AA' NZ     : 3.860e+05
 Factor NZ  : 3.362e+06 (roughly 130 MB of memory)
 Factor Ops : 9.985e+08 (less than 1 second per iteration)
 Threads    : 18

                  Objective                Residual
Iter       Primal          Dual         Primal    Dual     Compl     Time
   0  -8.72519143e+11  1.19653560e+09  2.53e+07 1.02e+03  1.06e+07     3s
   1  -9.31906057e+10  2.84196918e+09  2.71e+06 2.09e+02  1.16e+06     3s
   2  -2.21792482e+09  1.84157962e+09  6.50e+04 2.82e+01  3.13e+04     3s
   3   1.04328531e+08  1.38543069e+09  1.87e+03 3.26e+00  3.22e+03     3s
   4   2.40121768e+08  4.02915021e+08  4.74e+01 3.84e-01  3.42e+02     3s
   5   2.57875151e+08  2.98490660e+08  1.01e+01 7.71e-02  8.45e+01     3s
   6   2.61268245e+08  2.76015960e+08  2.98e+00 2.74e-02  3.04e+01     3s
   7   2.62218000e+08  2.67877207e+08  1.15e+00 9.89e-03  1.16e+01     3s
   8   2.62613463e+08  2.65945554e+08  4.63e-01 5.88e-03  6.81e+00     3s
   9   2.62841704e+08  2.63947401e+08  1.19e-01 1.60e-03  2.25e+00     3s
  10   2.62929133e+08  2.63505548e+08  3.35e-02 8.61e-04  1.17e+00     3s
  11   2.62976208e+08  2.63233202e+08  9.08e-03 3.84e-04  5.23e-01     3s
  12   2.62988983e+08  2.63126853e+08  4.59e-03 2.02e-04  2.80e-01     3s
  13   2.63000421e+08  2.63065244e+08  1.06e-03 9.42e-05  1.32e-01     3s
  14   2.63002124e+08  2.63041472e+08  6.43e-04 5.54e-05  8.00e-02     3s
  15   2.63003079e+08  2.63026605e+08  3.80e-04 3.19e-05  4.78e-02     4s
  16   2.63003648e+08  2.63018675e+08  2.58e-04 1.97e-05  3.06e-02     4s
  17   2.63004571e+08  2.63015143e+08  1.13e-04 1.43e-05  2.15e-02     4s
  18   2.63004699e+08  2.63012991e+08  8.62e-05 1.11e-05  1.69e-02     4s
  19   2.63004823e+08  2.63009988e+08  5.75e-05 6.65e-06  1.05e-02     4s
  20   2.63004997e+08  2.63008134e+08  3.69e-05 3.89e-06  6.38e-03     4s
  21   2.63005168e+08  2.63007423e+08  1.75e-05 2.86e-06  4.58e-03     4s
  22   2.63005192e+08  2.63006985e+08  1.48e-05 2.23e-06  3.65e-03     4s
  23   2.63005235e+08  2.63006430e+08  1.07e-05 1.45e-06  2.43e-03     4s
  24   2.63005275e+08  2.63006008e+08  7.46e-06 8.54e-07  1.49e-03     4s
  25   2.63005334e+08  2.63005878e+08  2.65e-06 6.79e-07  1.11e-03     4s
  26   2.63005351e+08  2.63005585e+08  1.11e-06 2.73e-07  4.77e-04     4s
  27   2.63005356e+08  2.63005524e+08  6.59e-07 1.92e-07  3.40e-04     4s
  28   2.63005363e+08  2.63005458e+08  2.15e-07 1.08e-07  1.92e-04     4s
  29   2.63005365e+08  2.63005398e+08  1.37e-07 3.06e-08  6.76e-05     4s
  30   2.63005366e+08  2.63005391e+08  5.85e-08 2.29e-08  4.97e-05     4s
  31   2.63005367e+08  2.63005377e+08  3.97e-08 7.86e-09  1.96e-05     4s
  32   2.63005368e+08  2.63005370e+08  1.74e-08 5.97e-10  3.43e-06     5s
  33   2.63005369e+08  2.63005369e+08  4.92e-09 1.00e-10  5.59e-07     5s
  34   2.63005369e+08  2.63005369e+08  1.35e-07 9.23e-11  1.41e-08     5s
  35   2.63005369e+08  2.63005369e+08  6.41e-09 8.00e-11  3.95e-12     5s

Barrier solved model in 35 iterations and 4.67 seconds (6.44 work units)
Optimal objective 2.63005369e+08


Root simplex log...

Iteration    Objective       Primal Inf.    Dual Inf.      Time
   10077    2.6300537e+08   0.000000e+00   0.000000e+00      5s
Crossover time: 0.34 seconds (0.29 work units)
Concurrent spin time: 0.15s

Solved with barrier

Root relaxation: objective 2.630054e+08, 10077 iterations, 3.29 seconds (3.48 work units)

    Nodes    |    Current Node    |     Objective Bounds      |     Work
 Expl Unexpl |  Obj  Depth IntInf | Incumbent    BestBd   Gap | It/Node Time

     0     0 2.6301e+08    0 6072 -4.123e+08 2.6301e+08   164%     -    6s
H    0     0                    1.052074e+08 2.6301e+08   150%     -    6s
H    0     0                    1.090469e+08 2.6301e+08   141%     -    6s
H    0     0                    1.619411e+08 2.6301e+08  62.4%     -    6s
H    0     0                    1.663446e+08 2.6301e+08  58.1%     -    6s
H    0     0                    1.663633e+08 2.6301e+08  58.1%     -    7s
H    0     0                    1.667228e+08 2.6301e+08  57.8%     -    9s
H    0     0                    1.675259e+08 2.6301e+08  57.0%     -    9s
H    0     0                    1.676806e+08 2.6301e+08  56.8%     -    9s
H    0     0                    2.254891e+08 2.6301e+08  16.6%     -   11s
     0     0 2.6301e+08    0 5432 2.2549e+08 2.6301e+08  16.6%     -   22s
H    0     0                    2.308481e+08 2.6301e+08  13.9%     -   36s
     0     0 2.6301e+08    0 5295 2.3085e+08 2.6301e+08  13.9%     -   44s
     0     0 2.6300e+08    0 6388 2.3085e+08 2.6300e+08  13.9%     -   59s
     0     0 2.6300e+08    0 6330 2.3085e+08 2.6300e+08  13.9%     -   62s
     0     0 2.6300e+08    0 6874 2.3085e+08 2.6300e+08  13.9%     -   84s
     0     0 2.6300e+08    0 6928 2.3085e+08 2.6300e+08  13.9%     -   91s
     0     0 2.6300e+08    0 7313 2.3085e+08 2.6300e+08  13.9%     -  106s
     0     0 2.6300e+08    0 7313 2.3085e+08 2.6300e+08  13.9%     -  108s
     0     0 2.6300e+08    0 6823 2.3085e+08 2.6300e+08  13.9%     -  109s
H    0     0                    2.317825e+08 2.6300e+08  13.5%     -  137s
H    0     0                    2.324048e+08 2.6300e+08  13.2%     -  144s
H    0     0                    2.344046e+08 2.6300e+08  12.2%     -  175s
H    0     0                    2.351550e+08 2.6300e+08  11.8%     -  234s
     0     2 2.6300e+08    0 6809 2.3516e+08 2.6300e+08  11.8%     -  245s
     1     4 2.6300e+08    1 7083 2.3516e+08 2.6300e+08  11.8%   581  266s
     3     8 2.6300e+08    2 6853 2.3516e+08 2.6300e+08  11.8%  3583  294s
H    4     8                    2.353364e+08 2.6300e+08  11.8%  2687  294s
     7    16 2.6300e+08    3 6992 2.3534e+08 2.6300e+08  11.8%  3959  339s
    15    30 2.6300e+08    4 7266 2.3534e+08 2.6300e+08  11.8%  4695  560s
H   17    30                    2.353479e+08 2.6300e+08  11.8%  4202  560s
    29    40 2.6300e+08    5 5649 2.3535e+08 2.6300e+08  11.8% 12469  747s
    39    60 2.6300e+08    6 4550 2.3535e+08 2.6300e+08  11.8% 16209  948s
H   41    60                    2.353542e+08 2.6300e+08  11.7% 15434  948s
H   59    86                    2.356523e+08 2.6300e+08  11.6% 11827 1203s
H   60    86                    2.362036e+08 2.6300e+08  11.3% 11664 1203s
H   61    86                    2.362478e+08 2.6300e+08  11.3% 11494 1203s
H   73    86                    2.370409e+08 2.6300e+08  11.0%  9817 1203s
H   76    86                    2.374568e+08 2.6300e+08  10.8%  9462 1203s
    85   476 2.6300e+08    8 4529 2.3746e+08 2.6300e+08  10.8%  8679 2059s
H  475   496                    2.374619e+08 2.6300e+08  10.8%  3508 2913s
H  476   496                    2.374623e+08 2.6300e+08  10.8%  3501 2913s
H  481   496                    2.374623e+08 2.6300e+08  10.8%  3507 2913s
H  482   496                    2.374624e+08 2.6300e+08  10.8%  3501 2913s
H  487   496                    2.374625e+08 2.6300e+08  10.8%  3474 2913s
H  490   496                    2.374625e+08 2.6300e+08  10.8%  3461 2913s
H  492   496                    2.374628e+08 2.6300e+08  10.8%  3458 2913s
   495   769 2.6300e+08   29 4557 2.3746e+08 2.6300e+08  10.8%  3451 3600s

Cutting planes:
  MIR: 13
  Flow cover: 83
  RLT: 3161

Explored 768 nodes (2386014 simplex iterations) in 3600.13 seconds (2890.86 work units)
Thread count was 20 (of 20 available processors)

Solution count 10: 2.37463e+08 2.37463e+08 2.37462e+08 ... 2.36248e+08

Time limit reached
Best objective 2.374628051087e+08, best bound 2.630036053522e+08, gap 10.7557%
